0 7 7 8 2 8 9 3 1 6
7 0 8 6 4 5 4 1 4 9
7 8 0 2 1 9 9 8 6 8
8 6 2 0 2 3 1 2 7 6
2 4 1 2 0 3 2 2 1 2
8 5 9 3 3 0 1 1 3 4
9 4 9 1 2 1 0 1 1 3
3 1 8 2 2 1 1 0 1 3
1 4 6 7 1 3 1 1 0 1
6 9 8 6 2 4 3 3 1 0
